SCEL4_1_4_1_0_0_0/0                     
  0.988000000000000     
     2.9024562919557746    0.0000000000000000    0.0000000000000000
    -1.4512281459778873    0.2993453574879570    5.4184588819192809
     0.0000000000000000   -9.8207530772541212    0.7974691265314415
   Co   Na   O 
     4     3     8
Direct
  0.0095362633869732  0.0190725267739535  0.9980896005156092
  0.4904637366130268  0.9809274732260465  0.7519103994843908
  0.9915787124598138  0.9831574249196416  0.5011669797912307
  0.5084212875401862  0.0168425750803584  0.2488330202087692
  0.7453583306055488  0.4907166612111118  0.6973642308722570
  0.2500000000000000  0.5000000000000000  0.3750000000000000
  0.7546416693944512  0.5092833387888883  0.0526357691277430
  0.9062394872716975  0.8124790745433887  0.8439313461946625
  0.3947001570870798  0.7894004141741395  0.5839920265581947
  0.9129581435320838  0.8259163870641545  0.3277034549142571
  0.4217586953312604  0.8435174906625149  0.0849507836664241
  0.5937605127283025  0.1875209254566112  0.9060686538053375
  0.0782413046687395  0.1564825093374850  0.6650492163335759
  0.5870418564679162  0.1740836129358455  0.4222965450857429
  0.1052998429129201  0.2105995858258604  0.1660079734418053
 
  0.00000000E+00  0.00000000E+00  0.00000000E+00
  0.00000000E+00  0.00000000E+00  0.00000000E+00
  0.00000000E+00  0.00000000E+00  0.00000000E+00
  0.00000000E+00  0.00000000E+00  0.00000000E+00
  0.00000000E+00  0.00000000E+00  0.00000000E+00
  0.00000000E+00  0.00000000E+00  0.00000000E+00
  0.00000000E+00  0.00000000E+00  0.00000000E+00
  0.00000000E+00  0.00000000E+00  0.00000000E+00
  0.00000000E+00  0.00000000E+00  0.00000000E+00
  0.00000000E+00  0.00000000E+00  0.00000000E+00
  0.00000000E+00  0.00000000E+00  0.00000000E+00
  0.00000000E+00  0.00000000E+00  0.00000000E+00
  0.00000000E+00  0.00000000E+00  0.00000000E+00
  0.00000000E+00  0.00000000E+00  0.00000000E+00
  0.00000000E+00  0.00000000E+00  0.00000000E+00
