SCEL4_1_4_1_0_0_0/0                     
   0.98800000000000     
     2.9213026428970226    0.0000000000000000    0.0000000000000000
    -1.4606513214485113    0.3617938290864597    5.9551162596732121
     0.0000000000000000   -9.8145195027685084    0.7594283305318837
   Co   Na    O 
     4     3     8
Direct
  0.0106178424561705  0.0212356849123410  0.9983606849764044
  0.4893821575438295  0.9787643150876590  0.7516393150235956
  0.9903157789180455  0.9806315578360980  0.5004154965186842
  0.5096842210819545  0.0193684421639020  0.2495845034813158
  0.7425789371218485  0.4851578742437042  0.6984527998740404
  0.2500000000000000  0.5000000000000000  0.3750000000000000
  0.7574210628781515  0.5148421257562958  0.0515472001259596
  0.9162650981648000  0.8325302963296011  0.8451852816572938
  0.4046598040932778  0.8093197081865355  0.5816944361371270
  0.9243929460693181  0.8487859921386303  0.3242816042780490
  0.4353326195976663  0.8706653391953338  0.0847015896630623
  0.5837349018352000  0.1674697036703989  0.9048147183427062
  0.0646673804023337  0.1293346608046662  0.6652984103369377
  0.5756070539306819  0.1512140078613697  0.4257183957219510
  0.0953401959067222  0.1906802918134645  0.1683055638628730
 
  0.00000000E+00  0.00000000E+00  0.00000000E+00
  0.00000000E+00  0.00000000E+00  0.00000000E+00
  0.00000000E+00  0.00000000E+00  0.00000000E+00
  0.00000000E+00  0.00000000E+00  0.00000000E+00
  0.00000000E+00  0.00000000E+00  0.00000000E+00
  0.00000000E+00  0.00000000E+00  0.00000000E+00
  0.00000000E+00  0.00000000E+00  0.00000000E+00
  0.00000000E+00  0.00000000E+00  0.00000000E+00
  0.00000000E+00  0.00000000E+00  0.00000000E+00
  0.00000000E+00  0.00000000E+00  0.00000000E+00
  0.00000000E+00  0.00000000E+00  0.00000000E+00
  0.00000000E+00  0.00000000E+00  0.00000000E+00
  0.00000000E+00  0.00000000E+00  0.00000000E+00
  0.00000000E+00  0.00000000E+00  0.00000000E+00
  0.00000000E+00  0.00000000E+00  0.00000000E+00
